c description: Random 3-CNF over 16 variables and 68 clauses
c generator: CNFgen (0.9.2)
c copyright: (C) 2012-2022 Massimo Lauria <massimo.lauria@uniroma1.it>
c url: https://massimolauria.net/cnfgen
c command line: cnfgen --output CNF_4.28/16_bit_68_94.cnf randkcnf 3 16 68
c
p cnf 16 68
1 6 -9 0
8 -11 -12 0
3 6 -15 0
-7 14 16 0
-1 8 -13 0
4 -8 10 0
1 7 -9 0
7 -11 12 0
-2 5 14 0
-6 -13 -15 0
-3 -5 6 0
-1 -5 -11 0
-1 -7 -14 0
10 -14 -16 0
5 6 -12 0
-4 -13 16 0
-2 -12 13 0
-8 9 -10 0
-6 -15 16 0
3 7 -10 0
5 -8 11 0
-3 -9 -16 0
-2 -4 14 0
5 8 14 0
-10 11 -15 0
8 10 -11 0
-3 12 -15 0
2 5 15 0
3 -5 9 0
2 7 16 0
-3 -6 -11 0
-11 13 14 0
5 13 -16 0
2 -4 8 0
4 -6 -13 0
7 10 12 0
1 2 -9 0
-1 2 14 0
6 11 -14 0
3 -5 8 0
-1 6 -10 0
-3 8 9 0
-3 -8 -16 0
-1 9 -16 0
12 -15 -16 0
-2 4 13 0
-11 13 16 0
-2 -6 -15 0
2 -11 15 0
-3 15 -16 0
1 2 -15 0
2 -4 -9 0
-2 -8 12 0
2 6 -8 0
-1 2 12 0
-2 -10 -13 0
-5 -6 -8 0
6 -11 15 0
-3 -6 15 0
-8 13 16 0
-4 -13 -16 0
-1 -2 14 0
5 9 10 0
-7 -9 -12 0
-3 -12 14 0
-6 -7 -11 0
11 12 15 0
-3 -6 -13 0
